5 5
1 42 3 75 0 94 4 5 2 52
1 22 2 77 3 44 0 85 4 59
3 25 4 21 0 92 1 64 2 68
0 93 3 47 1 35 4 87 2 7
4 56 1 52 3 46 0 9 2 58
-1
0 3 4 5
0 1 2 3 5
0 1 3 4 5
0 1 2 5
0 1 2 3 5
-2
329 306 320
26 101 169 297
28 157 285 409
105 202 278
75 155 163 294

434 7
15 12 2 23 8
5 0 21 13 17
6 14 4 24 19
10 1 16 22 7
20 11 3 18 9
